data/lp_files/pEFS/105_3.lp
\ Model foo
\ LP format - for model browsing. Use MPS format to capture full model detail.
Minimize
  z
Subject To
 allocateEach[1]: x[1,1] + x[2,1] + x[3,1] + x[4,1] + x[5,1] + x[6,1] = 1
 allocateEach[2]: x[1,2] + x[2,2] + x[3,2] + x[4,2] + x[5,2] + x[6,2] = 1
 allocateEach[3]: x[1,3] + x[2,3] + x[3,3] + x[4,3] + x[5,3] + x[6,3] = 1
 allocateEach[4]: x[1,4] + x[2,4] + x[3,4] + x[4,4] + x[5,4] + x[6,4] = 1
 allocateEach[5]: x[1,5] + x[2,5] + x[3,5] + x[4,5] + x[5,5] + x[6,5] = 1
 allocateAllCash: cashProportion[1] + cashProportion[2] + cashProportion[3]
   + cashProportion[4] + cashProportion[5] + cashProportion[6] = 1
 findWorstP[1,2]: z + 0.1149755676918655 cashProportion[1]
   - 0.1149755676918655 cashProportion[2] + 0.0143144581776373 x[1,1]
   + 0.2851394078758264 x[1,2] + 0.0713423397528025 x[1,3]
   + 0.2056338028169015 x[1,4] + 0.308594423684967 x[1,5]
   - 0.0143144581776373 x[2,1] - 0.2851394078758264 x[2,2]
   - 0.0713423397528025 x[2,3] - 0.2056338028169015 x[2,4]
   - 0.308594423684967 x[2,5] >= 0
 findWorstP[1,3]: z + 0.1149755676918655 cashProportion[1]
   - 0.1149755676918655 cashProportion[3] + 0.0143144581776373 x[1,1]
   + 0.2851394078758264 x[1,2] + 0.0713423397528025 x[1,3]
   + 0.2056338028169015 x[1,4] + 0.308594423684967 x[1,5]
   - 0.0143144581776373 x[3,1] - 0.2851394078758264 x[3,2]
   - 0.0713423397528025 x[3,3] - 0.2056338028169015 x[3,4]
   - 0.308594423684967 x[3,5] >= 0
 findWorstP[1,4]: z + 0.1149755676918655 cashProportion[1]
   - 0.1149755676918655 cashProportion[4] + 0.0143144581776373 x[1,1]
   + 0.2851394078758264 x[1,2] + 0.0713423397528025 x[1,3]
   + 0.2056338028169015 x[1,4] + 0.308594423684967 x[1,5]
   - 0.0143144581776373 x[4,1] - 0.2851394078758264 x[4,2]
   - 0.0713423397528025 x[4,3] - 0.2056338028169015 x[4,4]
   - 0.308594423684967 x[4,5] >= 0
 findWorstP[1,5]: z + 0.1149755676918655 cashProportion[1]
   - 0.1149755676918655 cashProportion[5] + 0.0143144581776373 x[1,1]
   + 0.2851394078758264 x[1,2] + 0.0713423397528025 x[1,3]
   + 0.2056338028169015 x[1,4] + 0.308594423684967 x[1,5]
   - 0.0143144581776373 x[5,1] - 0.2851394078758264 x[5,2]
   - 0.0713423397528025 x[5,3] - 0.2056338028169015 x[5,4]
   - 0.308594423684967 x[5,5] >= 0
 findWorstP[1,6]: z + 0.1149755676918655 cashProportion[1]
   - 0.1149755676918655 cashProportion[6] + 0.0143144581776373 x[1,1]
   + 0.2851394078758264 x[1,2] + 0.0713423397528025 x[1,3]
   + 0.2056338028169015 x[1,4] + 0.308594423684967 x[1,5]
   - 0.0143144581776373 x[6,1] - 0.2851394078758264 x[6,2]
   - 0.0713423397528025 x[6,3] - 0.2056338028169015 x[6,4]
   - 0.308594423684967 x[6,5] >= 0
 findWorstP[2,1]: z - 0.0754062511782227 cashProportion[1]
   + 0.0754062511782227 cashProportion[2] - 0.0877351732458621 x[1,1]
   - 0.3220600987821889 x[1,2] - 0.0253742035214719 x[1,3]
   - 0.252309316442333 x[1,4] - 0.2371149568299212 x[1,5]
   + 0.0877351732458621 x[2,1] + 0.3220600987821889 x[2,2]
   + 0.0253742035214719 x[2,3] + 0.252309316442333 x[2,4]
   + 0.2371149568299212 x[2,5] >= 0
 findWorstP[2,3]: z + 0.0754062511782227 cashProportion[2]
   - 0.0754062511782227 cashProportion[3] + 0.0877351732458621 x[2,1]
   + 0.3220600987821889 x[2,2] + 0.0253742035214719 x[2,3]
   + 0.252309316442333 x[2,4] + 0.2371149568299212 x[2,5]
   - 0.0877351732458621 x[3,1] - 0.3220600987821889 x[3,2]
   - 0.0253742035214719 x[3,3] - 0.252309316442333 x[3,4]
   - 0.2371149568299212 x[3,5] >= 0
 findWorstP[2,4]: z + 0.0754062511782227 cashProportion[2]
   - 0.0754062511782227 cashProportion[4] + 0.0877351732458621 x[2,1]
   + 0.3220600987821889 x[2,2] + 0.0253742035214719 x[2,3]
   + 0.252309316442333 x[2,4] + 0.2371149568299212 x[2,5]
   - 0.0877351732458621 x[4,1] - 0.3220600987821889 x[4,2]
   - 0.0253742035214719 x[4,3] - 0.252309316442333 x[4,4]
   - 0.2371149568299212 x[4,5] >= 0
 findWorstP[2,5]: z + 0.0754062511782227 cashProportion[2]
   - 0.0754062511782227 cashProportion[5] + 0.0877351732458621 x[2,1]
   + 0.3220600987821889 x[2,2] + 0.0253742035214719 x[2,3]
   + 0.252309316442333 x[2,4] + 0.2371149568299212 x[2,5]
   - 0.0877351732458621 x[5,1] - 0.3220600987821889 x[5,2]
   - 0.0253742035214719 x[5,3] - 0.252309316442333 x[5,4]
   - 0.2371149568299212 x[5,5] >= 0
 findWorstP[2,6]: z + 0.0754062511782227 cashProportion[2]
   - 0.0754062511782227 cashProportion[6] + 0.0877351732458621 x[2,1]
   + 0.3220600987821889 x[2,2] + 0.0253742035214719 x[2,3]
   + 0.252309316442333 x[2,4] + 0.2371149568299212 x[2,5]
   - 0.0877351732458621 x[6,1] - 0.3220600987821889 x[6,2]
   - 0.0253742035214719 x[6,3] - 0.252309316442333 x[6,4]
   - 0.2371149568299212 x[6,5] >= 0
 findWorstP[3,1]: z - 0.071285999429712 cashProportion[1]
   + 0.071285999429712 cashProportion[3] - 0.1361562589107499 x[1,1]
   - 0.2061591103507271 x[1,2] - 0.2522811519817507 x[1,3]
   - 0.2921656686626746 x[1,4] - 0.0419518106643855 x[1,5]
   + 0.1361562589107499 x[3,1] + 0.2061591103507271 x[3,2]
   + 0.2522811519817507 x[3,3] + 0.2921656686626746 x[3,4]
   + 0.0419518106643855 x[3,5] >= 0
 findWorstP[3,2]: z - 0.071285999429712 cashProportion[2]
   + 0.071285999429712 cashProportion[3] - 0.1361562589107499 x[2,1]
   - 0.2061591103507271 x[2,2] - 0.2522811519817507 x[2,3]
   - 0.2921656686626746 x[2,4] - 0.0419518106643855 x[2,5]
   + 0.1361562589107499 x[3,1] + 0.2061591103507271 x[3,2]
   + 0.2522811519817507 x[3,3] + 0.2921656686626746 x[3,4]
   + 0.0419518106643855 x[3,5] >= 0
 findWorstP[3,4]: z + 0.071285999429712 cashProportion[3]
   - 0.071285999429712 cashProportion[4] + 0.1361562589107499 x[3,1]
   + 0.2061591103507271 x[3,2] + 0.2522811519817507 x[3,3]
   + 0.2921656686626746 x[3,4] + 0.0419518106643855 x[3,5]
   - 0.1361562589107499 x[4,1] - 0.2061591103507271 x[4,2]
   - 0.2522811519817507 x[4,3] - 0.2921656686626746 x[4,4]
   - 0.0419518106643855 x[4,5] >= 0
 findWorstP[3,5]: z + 0.071285999429712 cashProportion[3]
   - 0.071285999429712 cashProportion[5] + 0.1361562589107499 x[3,1]
   + 0.2061591103507271 x[3,2] + 0.2522811519817507 x[3,3]
   + 0.2921656686626746 x[3,4] + 0.0419518106643855 x[3,5]
   - 0.1361562589107499 x[5,1] - 0.2061591103507271 x[5,2]
   - 0.2522811519817507 x[5,3] - 0.2921656686626746 x[5,4]
   - 0.0419518106643855 x[5,5] >= 0
 findWorstP[3,6]: z + 0.071285999429712 cashProportion[3]
   - 0.071285999429712 cashProportion[6] + 0.1361562589107499 x[3,1]
   + 0.2061591103507271 x[3,2] + 0.2522811519817507 x[3,3]
   + 0.2921656686626746 x[3,4] + 0.0419518106643855 x[3,5]
   - 0.1361562589107499 x[6,1] - 0.2061591103507271 x[6,2]
   - 0.2522811519817507 x[6,3] - 0.2921656686626746 x[6,4]
   - 0.0419518106643855 x[6,5] >= 0
 findWorstP[4,1]: z - 0.0979959821647313 cashProportion[1]
   + 0.0979959821647313 cashProportion[4] - 0.0527218384046254 x[1,1]
   - 0.1598314469106767 x[1,2] - 0.1158312509187123 x[1,3]
   - 0.1274927727963154 x[1,4] - 0.446126708804939 x[1,5]
   + 0.0527218384046254 x[4,1] + 0.1598314469106767 x[4,2]
   + 0.1158312509187123 x[4,3] + 0.1274927727963154 x[4,4]
   + 0.446126708804939 x[4,5] >= 0
 findWorstP[4,2]: z - 0.0979959821647313 cashProportion[2]
   + 0.0979959821647313 cashProportion[4] - 0.0527218384046254 x[2,1]
   - 0.1598314469106767 x[2,2] - 0.1158312509187123 x[2,3]
   - 0.1274927727963154 x[2,4] - 0.446126708804939 x[2,5]
   + 0.0527218384046254 x[4,1] + 0.1598314469106767 x[4,2]
   + 0.1158312509187123 x[4,3] + 0.1274927727963154 x[4,4]
   + 0.446126708804939 x[4,5] >= 0
 findWorstP[4,3]: z - 0.0979959821647313 cashProportion[3]
   + 0.0979959821647313 cashProportion[4] - 0.0527218384046254 x[3,1]
   - 0.1598314469106767 x[3,2] - 0.1158312509187123 x[3,3]
   - 0.1274927727963154 x[3,4] - 0.446126708804939 x[3,5]
   + 0.0527218384046254 x[4,1] + 0.1598314469106767 x[4,2]
   + 0.1158312509187123 x[4,3] + 0.1274927727963154 x[4,4]
   + 0.446126708804939 x[4,5] >= 0
 findWorstP[4,5]: z + 0.0979959821647313 cashProportion[4]
   - 0.0979959821647313 cashProportion[5] + 0.0527218384046254 x[4,1]
   + 0.1598314469106767 x[4,2] + 0.1158312509187123 x[4,3]
   + 0.1274927727963154 x[4,4] + 0.446126708804939 x[4,5]
   - 0.0527218384046254 x[5,1] - 0.1598314469106767 x[5,2]
   - 0.1158312509187123 x[5,3] - 0.1274927727963154 x[5,4]
   - 0.446126708804939 x[5,5] >= 0
 findWorstP[4,6]: z + 0.0979959821647313 cashProportion[4]
   - 0.0979959821647313 cashProportion[6] + 0.0527218384046254 x[4,1]
   + 0.1598314469106767 x[4,2] + 0.1158312509187123 x[4,3]
   + 0.1274927727963154 x[4,4] + 0.446126708804939 x[4,5]
   - 0.0527218384046254 x[6,1] - 0.1598314469106767 x[6,2]
   - 0.1158312509187123 x[6,3] - 0.1274927727963154 x[6,4]
   - 0.446126708804939 x[6,5] >= 0
 findWorstP[5,1]: z - 0.0522125048949223 cashProportion[1]
   + 0.0522125048949223 cashProportion[5] - 0.2108863072705913 x[1,1]
   - 0.1820388983161467 x[1,2] - 0.2062393943349432 x[1,3]
   - 0.1649131967106122 x[1,4] - 0.1837096984727842 x[1,5]
   + 0.2108863072705913 x[5,1] + 0.1820388983161467 x[5,2]
   + 0.2062393943349432 x[5,3] + 0.1649131967106122 x[5,4]
   + 0.1837096984727842 x[5,5] >= 0
 findWorstP[5,2]: z - 0.0522125048949223 cashProportion[2]
   + 0.0522125048949223 cashProportion[5] - 0.2108863072705913 x[2,1]
   - 0.1820388983161467 x[2,2] - 0.2062393943349432 x[2,3]
   - 0.1649131967106122 x[2,4] - 0.1837096984727842 x[2,5]
   + 0.2108863072705913 x[5,1] + 0.1820388983161467 x[5,2]
   + 0.2062393943349432 x[5,3] + 0.1649131967106122 x[5,4]
   + 0.1837096984727842 x[5,5] >= 0
 findWorstP[5,3]: z - 0.0522125048949223 cashProportion[3]
   + 0.0522125048949223 cashProportion[5] - 0.2108863072705913 x[3,1]
   - 0.1820388983161467 x[3,2] - 0.2062393943349432 x[3,3]
   - 0.1649131967106122 x[3,4] - 0.1837096984727842 x[3,5]
   + 0.2108863072705913 x[5,1] + 0.1820388983161467 x[5,2]
   + 0.2062393943349432 x[5,3] + 0.1649131967106122 x[5,4]
   + 0.1837096984727842 x[5,5] >= 0
 findWorstP[5,4]: z - 0.0522125048949223 cashProportion[4]
   + 0.0522125048949223 cashProportion[5] - 0.2108863072705913 x[4,1]
   - 0.1820388983161467 x[4,2] - 0.2062393943349432 x[4,3]
   - 0.1649131967106122 x[4,4] - 0.1837096984727842 x[4,5]
   + 0.2108863072705913 x[5,1] + 0.1820388983161467 x[5,2]
   + 0.2062393943349432 x[5,3] + 0.1649131967106122 x[5,4]
   + 0.1837096984727842 x[5,5] >= 0
 findWorstP[5,6]: z + 0.0522125048949223 cashProportion[5]
   - 0.0522125048949223 cashProportion[6] + 0.2108863072705913 x[5,1]
   + 0.1820388983161467 x[5,2] + 0.2062393943349432 x[5,3]
   + 0.1649131967106122 x[5,4] + 0.1837096984727842 x[5,5]
   - 0.2108863072705913 x[6,1] - 0.1820388983161467 x[6,2]
   - 0.2062393943349432 x[6,3] - 0.1649131967106122 x[6,4]
   - 0.1837096984727842 x[6,5] >= 0
 findWorstP[6,1]: z - 0.0616579831673706 cashProportion[1]
   + 0.0616579831673706 cashProportion[6] - 0.1323180318771773 x[1,1]
   - 0.1879027037025619 x[1,2] - 0.1558405524555291 x[1,3]
   - 0.1888584024416561 x[1,4] - 0.2734223263557049 x[1,5]
   + 0.1323180318771773 x[6,1] + 0.1879027037025619 x[6,2]
   + 0.1558405524555291 x[6,3] + 0.1888584024416561 x[6,4]
   + 0.2734223263557049 x[6,5] >= 0
 findWorstP[6,2]: z - 0.0616579831673706 cashProportion[2]
   + 0.0616579831673706 cashProportion[6] - 0.1323180318771773 x[2,1]
   - 0.1879027037025619 x[2,2] - 0.1558405524555291 x[2,3]
   - 0.1888584024416561 x[2,4] - 0.2734223263557049 x[2,5]
   + 0.1323180318771773 x[6,1] + 0.1879027037025619 x[6,2]
   + 0.1558405524555291 x[6,3] + 0.1888584024416561 x[6,4]
   + 0.2734223263557049 x[6,5] >= 0
 findWorstP[6,3]: z - 0.0616579831673706 cashProportion[3]
   + 0.0616579831673706 cashProportion[6] - 0.1323180318771773 x[3,1]
   - 0.1879027037025619 x[3,2] - 0.1558405524555291 x[3,3]
   - 0.1888584024416561 x[3,4] - 0.2734223263557049 x[3,5]
   + 0.1323180318771773 x[6,1] + 0.1879027037025619 x[6,2]
   + 0.1558405524555291 x[6,3] + 0.1888584024416561 x[6,4]
   + 0.2734223263557049 x[6,5] >= 0
 findWorstP[6,4]: z - 0.0616579831673706 cashProportion[4]
   + 0.0616579831673706 cashProportion[6] - 0.1323180318771773 x[4,1]
   - 0.1879027037025619 x[4,2] - 0.1558405524555291 x[4,3]
   - 0.1888584024416561 x[4,4] - 0.2734223263557049 x[4,5]
   + 0.1323180318771773 x[6,1] + 0.1879027037025619 x[6,2]
   + 0.1558405524555291 x[6,3] + 0.1888584024416561 x[6,4]
   + 0.2734223263557049 x[6,5] >= 0
 findWorstP[6,5]: z - 0.0616579831673706 cashProportion[5]
   + 0.0616579831673706 cashProportion[6] - 0.1323180318771773 x[5,1]
   - 0.1879027037025619 x[5,2] - 0.1558405524555291 x[5,3]
   - 0.1888584024416561 x[5,4] - 0.2734223263557049 x[5,5]
   + 0.1323180318771773 x[6,1] + 0.1879027037025619 x[6,2]
   + 0.1558405524555291 x[6,3] + 0.1888584024416561 x[6,4]
   + 0.2734223263557049 x[6,5] >= 0
Bounds
 z <= 1
 -infinity <= cashProportion[1] <= 1
 -infinity <= cashProportion[2] <= 1
 -infinity <= cashProportion[3] <= 1
 -infinity <= cashProportion[4] <= 1
 -infinity <= cashProportion[5] <= 1
 -infinity <= cashProportion[6] <= 1
Binaries
 x[1,1] x[1,2] x[1,3] x[1,4] x[1,5] x[2,1] x[2,2] x[2,3] x[2,4] x[2,5]
 x[3,1] x[3,2] x[3,3] x[3,4] x[3,5] x[4,1] x[4,2] x[4,3] x[4,4] x[4,5]
 x[5,1] x[5,2] x[5,3] x[5,4] x[5,5] x[6,1] x[6,2] x[6,3] x[6,4] x[6,5]
End
