data/mps_files/pEFS/105_3.mps
NAME foo
ROWS
 N  OBJ
 E  allocateEach[1]
 E  allocateEach[2]
 E  allocateEach[3]
 E  allocateEach[4]
 E  allocateEach[5]
 E  allocateAllCash
 G  findWorstP[1,2]
 G  findWorstP[1,3]
 G  findWorstP[1,4]
 G  findWorstP[1,5]
 G  findWorstP[1,6]
 G  findWorstP[2,1]
 G  findWorstP[2,3]
 G  findWorstP[2,4]
 G  findWorstP[2,5]
 G  findWorstP[2,6]
 G  findWorstP[3,1]
 G  findWorstP[3,2]
 G  findWorstP[3,4]
 G  findWorstP[3,5]
 G  findWorstP[3,6]
 G  findWorstP[4,1]
 G  findWorstP[4,2]
 G  findWorstP[4,3]
 G  findWorstP[4,5]
 G  findWorstP[4,6]
 G  findWorstP[5,1]
 G  findWorstP[5,2]
 G  findWorstP[5,3]
 G  findWorstP[5,4]
 G  findWorstP[5,6]
 G  findWorstP[6,1]
 G  findWorstP[6,2]
 G  findWorstP[6,3]
 G  findWorstP[6,4]
 G  findWorstP[6,5]
COLUMNS
    z         OBJ       1
    z         findWorstP[1,2]  1
    z         findWorstP[1,3]  1
    z         findWorstP[1,4]  1
    z         findWorstP[1,5]  1
    z         findWorstP[1,6]  1
    z         findWorstP[2,1]  1
    z         findWorstP[2,3]  1
    z         findWorstP[2,4]  1
    z         findWorstP[2,5]  1
    z         findWorstP[2,6]  1
    z         findWorstP[3,1]  1
    z         findWorstP[3,2]  1
    z         findWorstP[3,4]  1
    z         findWorstP[3,5]  1
    z         findWorstP[3,6]  1
    z         findWorstP[4,1]  1
    z         findWorstP[4,2]  1
    z         findWorstP[4,3]  1
    z         findWorstP[4,5]  1
    z         findWorstP[4,6]  1
    z         findWorstP[5,1]  1
    z         findWorstP[5,2]  1
    z         findWorstP[5,3]  1
    z         findWorstP[5,4]  1
    z         findWorstP[5,6]  1
    z         findWorstP[6,1]  1
    z         findWorstP[6,2]  1
    z         findWorstP[6,3]  1
    z         findWorstP[6,4]  1
    z         findWorstP[6,5]  1
    cashProportion[1]  allocateAllCash  1
    cashProportion[1]  findWorstP[1,2]  1.1497556769186551e-01
    cashProportion[1]  findWorstP[1,3]  1.1497556769186551e-01
    cashProportion[1]  findWorstP[1,4]  1.1497556769186551e-01
    cashProportion[1]  findWorstP[1,5]  1.1497556769186551e-01
    cashProportion[1]  findWorstP[1,6]  1.1497556769186551e-01
    cashProportion[1]  findWorstP[2,1]  -7.5406251178222666e-02
    cashProportion[1]  findWorstP[3,1]  -7.1285999429711991e-02
    cashProportion[1]  findWorstP[4,1]  -9.7995982164731252e-02
    cashProportion[1]  findWorstP[5,1]  -5.2212504894922331e-02
    cashProportion[1]  findWorstP[6,1]  -6.1657983167370589e-02
    cashProportion[2]  allocateAllCash  1
    cashProportion[2]  findWorstP[1,2]  -1.1497556769186551e-01
    cashProportion[2]  findWorstP[2,1]  7.5406251178222666e-02
    cashProportion[2]  findWorstP[2,3]  7.5406251178222666e-02
    cashProportion[2]  findWorstP[2,4]  7.5406251178222666e-02
    cashProportion[2]  findWorstP[2,5]  7.5406251178222666e-02
    cashProportion[2]  findWorstP[2,6]  7.5406251178222666e-02
    cashProportion[2]  findWorstP[3,2]  -7.1285999429711991e-02
    cashProportion[2]  findWorstP[4,2]  -9.7995982164731252e-02
    cashProportion[2]  findWorstP[5,2]  -5.2212504894922331e-02
    cashProportion[2]  findWorstP[6,2]  -6.1657983167370589e-02
    cashProportion[3]  allocateAllCash  1
    cashProportion[3]  findWorstP[1,3]  -1.1497556769186551e-01
    cashProportion[3]  findWorstP[2,3]  -7.5406251178222666e-02
    cashProportion[3]  findWorstP[3,1]  7.1285999429711991e-02
    cashProportion[3]  findWorstP[3,2]  7.1285999429711991e-02
    cashProportion[3]  findWorstP[3,4]  7.1285999429711991e-02
    cashProportion[3]  findWorstP[3,5]  7.1285999429711991e-02
    cashProportion[3]  findWorstP[3,6]  7.1285999429711991e-02
    cashProportion[3]  findWorstP[4,3]  -9.7995982164731252e-02
    cashProportion[3]  findWorstP[5,3]  -5.2212504894922331e-02
    cashProportion[3]  findWorstP[6,3]  -6.1657983167370589e-02
    cashProportion[4]  allocateAllCash  1
    cashProportion[4]  findWorstP[1,4]  -1.1497556769186551e-01
    cashProportion[4]  findWorstP[2,4]  -7.5406251178222666e-02
    cashProportion[4]  findWorstP[3,4]  -7.1285999429711991e-02
    cashProportion[4]  findWorstP[4,1]  9.7995982164731252e-02
    cashProportion[4]  findWorstP[4,2]  9.7995982164731252e-02
    cashProportion[4]  findWorstP[4,3]  9.7995982164731252e-02
    cashProportion[4]  findWorstP[4,5]  9.7995982164731252e-02
    cashProportion[4]  findWorstP[4,6]  9.7995982164731252e-02
    cashProportion[4]  findWorstP[5,4]  -5.2212504894922331e-02
    cashProportion[4]  findWorstP[6,4]  -6.1657983167370589e-02
    cashProportion[5]  allocateAllCash  1
    cashProportion[5]  findWorstP[1,5]  -1.1497556769186551e-01
    cashProportion[5]  findWorstP[2,5]  -7.5406251178222666e-02
    cashProportion[5]  findWorstP[3,5]  -7.1285999429711991e-02
    cashProportion[5]  findWorstP[4,5]  -9.7995982164731252e-02
    cashProportion[5]  findWorstP[5,1]  5.2212504894922331e-02
    cashProportion[5]  findWorstP[5,2]  5.2212504894922331e-02
    cashProportion[5]  findWorstP[5,3]  5.2212504894922331e-02
    cashProportion[5]  findWorstP[5,4]  5.2212504894922331e-02
    cashProportion[5]  findWorstP[5,6]  5.2212504894922331e-02
    cashProportion[5]  findWorstP[6,5]  -6.1657983167370589e-02
    cashProportion[6]  allocateAllCash  1
    cashProportion[6]  findWorstP[1,6]  -1.1497556769186551e-01
    cashProportion[6]  findWorstP[2,6]  -7.5406251178222666e-02
    cashProportion[6]  findWorstP[3,6]  -7.1285999429711991e-02
    cashProportion[6]  findWorstP[4,6]  -9.7995982164731252e-02
    cashProportion[6]  findWorstP[5,6]  -5.2212504894922331e-02
    cashProportion[6]  findWorstP[6,1]  6.1657983167370589e-02
    cashProportion[6]  findWorstP[6,2]  6.1657983167370589e-02
    cashProportion[6]  findWorstP[6,3]  6.1657983167370589e-02
    cashProportion[6]  findWorstP[6,4]  6.1657983167370589e-02
    cashProportion[6]  findWorstP[6,5]  6.1657983167370589e-02
    MARKER    'MARKER'                 'INTORG'
    x[1,1]    allocateEach[1]  1
    x[1,1]    findWorstP[1,2]  1.4314458177637254e-02
    x[1,1]    findWorstP[1,3]  1.4314458177637254e-02
    x[1,1]    findWorstP[1,4]  1.4314458177637254e-02
    x[1,1]    findWorstP[1,5]  1.4314458177637254e-02
    x[1,1]    findWorstP[1,6]  1.4314458177637254e-02
    x[1,1]    findWorstP[2,1]  -8.7735173245862066e-02
    x[1,1]    findWorstP[3,1]  -1.3615625891074989e-01
    x[1,1]    findWorstP[4,1]  -5.2721838404625410e-02
    x[1,1]    findWorstP[5,1]  -2.1088630727059127e-01
    x[1,1]    findWorstP[6,1]  -1.3231803187717731e-01
    x[1,2]    allocateEach[2]  1
    x[1,2]    findWorstP[1,2]  2.8513940787582642e-01
    x[1,2]    findWorstP[1,3]  2.8513940787582642e-01
    x[1,2]    findWorstP[1,4]  2.8513940787582642e-01
    x[1,2]    findWorstP[1,5]  2.8513940787582642e-01
    x[1,2]    findWorstP[1,6]  2.8513940787582642e-01
    x[1,2]    findWorstP[2,1]  -3.2206009878218894e-01
    x[1,2]    findWorstP[3,1]  -2.0615911035072707e-01
    x[1,2]    findWorstP[4,1]  -1.5983144691067666e-01
    x[1,2]    findWorstP[5,1]  -1.8203889831614670e-01
    x[1,2]    findWorstP[6,1]  -1.8790270370256187e-01
    x[1,3]    allocateEach[3]  1
    x[1,3]    findWorstP[1,2]  7.1342339752802547e-02
    x[1,3]    findWorstP[1,3]  7.1342339752802547e-02
    x[1,3]    findWorstP[1,4]  7.1342339752802547e-02
    x[1,3]    findWorstP[1,5]  7.1342339752802547e-02
    x[1,3]    findWorstP[1,6]  7.1342339752802547e-02
    x[1,3]    findWorstP[2,1]  -2.5374203521471926e-02
    x[1,3]    findWorstP[3,1]  -2.5228115198175072e-01
    x[1,3]    findWorstP[4,1]  -1.1583125091871233e-01
    x[1,3]    findWorstP[5,1]  -2.0623939433494320e-01
    x[1,3]    findWorstP[6,1]  -1.5584055245552914e-01
    x[1,4]    allocateEach[4]  1
    x[1,4]    findWorstP[1,2]  2.0563380281690147e-01
    x[1,4]    findWorstP[1,3]  2.0563380281690147e-01
    x[1,4]    findWorstP[1,4]  2.0563380281690147e-01
    x[1,4]    findWorstP[1,5]  2.0563380281690147e-01
    x[1,4]    findWorstP[1,6]  2.0563380281690147e-01
    x[1,4]    findWorstP[2,1]  -0.252309316442333
    x[1,4]    findWorstP[3,1]  -2.9216566866267457e-01
    x[1,4]    findWorstP[4,1]  -1.2749277279631535e-01
    x[1,4]    findWorstP[5,1]  -1.6491319671061219e-01
    x[1,4]    findWorstP[6,1]  -1.8885840244165614e-01
    x[1,5]    allocateEach[5]  1
    x[1,5]    findWorstP[1,2]  3.0859442368496703e-01
    x[1,5]    findWorstP[1,3]  3.0859442368496703e-01
    x[1,5]    findWorstP[1,4]  3.0859442368496703e-01
    x[1,5]    findWorstP[1,5]  3.0859442368496703e-01
    x[1,5]    findWorstP[1,6]  3.0859442368496703e-01
    x[1,5]    findWorstP[2,1]  -2.3711495682992118e-01
    x[1,5]    findWorstP[3,1]  -4.1951810664385504e-02
    x[1,5]    findWorstP[4,1]  -0.446126708804939
    x[1,5]    findWorstP[5,1]  -1.8370969847278421e-01
    x[1,5]    findWorstP[6,1]  -2.7342232635570490e-01
    x[2,1]    allocateEach[1]  1
    x[2,1]    findWorstP[1,2]  -1.4314458177637254e-02
    x[2,1]    findWorstP[2,1]  8.7735173245862066e-02
    x[2,1]    findWorstP[2,3]  8.7735173245862066e-02
    x[2,1]    findWorstP[2,4]  8.7735173245862066e-02
    x[2,1]    findWorstP[2,5]  8.7735173245862066e-02
    x[2,1]    findWorstP[2,6]  8.7735173245862066e-02
    x[2,1]    findWorstP[3,2]  -1.3615625891074989e-01
    x[2,1]    findWorstP[4,2]  -5.2721838404625410e-02
    x[2,1]    findWorstP[5,2]  -2.1088630727059127e-01
    x[2,1]    findWorstP[6,2]  -1.3231803187717731e-01
    x[2,2]    allocateEach[2]  1
    x[2,2]    findWorstP[1,2]  -2.8513940787582642e-01
    x[2,2]    findWorstP[2,1]  3.2206009878218894e-01
    x[2,2]    findWorstP[2,3]  3.2206009878218894e-01
    x[2,2]    findWorstP[2,4]  3.2206009878218894e-01
    x[2,2]    findWorstP[2,5]  3.2206009878218894e-01
    x[2,2]    findWorstP[2,6]  3.2206009878218894e-01
    x[2,2]    findWorstP[3,2]  -2.0615911035072707e-01
    x[2,2]    findWorstP[4,2]  -1.5983144691067666e-01
    x[2,2]    findWorstP[5,2]  -1.8203889831614670e-01
    x[2,2]    findWorstP[6,2]  -1.8790270370256187e-01
    x[2,3]    allocateEach[3]  1
    x[2,3]    findWorstP[1,2]  -7.1342339752802547e-02
    x[2,3]    findWorstP[2,1]  2.5374203521471926e-02
    x[2,3]    findWorstP[2,3]  2.5374203521471926e-02
    x[2,3]    findWorstP[2,4]  2.5374203521471926e-02
    x[2,3]    findWorstP[2,5]  2.5374203521471926e-02
    x[2,3]    findWorstP[2,6]  2.5374203521471926e-02
    x[2,3]    findWorstP[3,2]  -2.5228115198175072e-01
    x[2,3]    findWorstP[4,2]  -1.1583125091871233e-01
    x[2,3]    findWorstP[5,2]  -2.0623939433494320e-01
    x[2,3]    findWorstP[6,2]  -1.5584055245552914e-01
    x[2,4]    allocateEach[4]  1
    x[2,4]    findWorstP[1,2]  -2.0563380281690147e-01
    x[2,4]    findWorstP[2,1]  0.252309316442333
    x[2,4]    findWorstP[2,3]  0.252309316442333
    x[2,4]    findWorstP[2,4]  0.252309316442333
    x[2,4]    findWorstP[2,5]  0.252309316442333
    x[2,4]    findWorstP[2,6]  0.252309316442333
    x[2,4]    findWorstP[3,2]  -2.9216566866267457e-01
    x[2,4]    findWorstP[4,2]  -1.2749277279631535e-01
    x[2,4]    findWorstP[5,2]  -1.6491319671061219e-01
    x[2,4]    findWorstP[6,2]  -1.8885840244165614e-01
    x[2,5]    allocateEach[5]  1
    x[2,5]    findWorstP[1,2]  -3.0859442368496703e-01
    x[2,5]    findWorstP[2,1]  2.3711495682992118e-01
    x[2,5]    findWorstP[2,3]  2.3711495682992118e-01
    x[2,5]    findWorstP[2,4]  2.3711495682992118e-01
    x[2,5]    findWorstP[2,5]  2.3711495682992118e-01
    x[2,5]    findWorstP[2,6]  2.3711495682992118e-01
    x[2,5]    findWorstP[3,2]  -4.1951810664385504e-02
    x[2,5]    findWorstP[4,2]  -0.446126708804939
    x[2,5]    findWorstP[5,2]  -1.8370969847278421e-01
    x[2,5]    findWorstP[6,2]  -2.7342232635570490e-01
    x[3,1]    allocateEach[1]  1
    x[3,1]    findWorstP[1,3]  -1.4314458177637254e-02
    x[3,1]    findWorstP[2,3]  -8.7735173245862066e-02
    x[3,1]    findWorstP[3,1]  1.3615625891074989e-01
    x[3,1]    findWorstP[3,2]  1.3615625891074989e-01
    x[3,1]    findWorstP[3,4]  1.3615625891074989e-01
    x[3,1]    findWorstP[3,5]  1.3615625891074989e-01
    x[3,1]    findWorstP[3,6]  1.3615625891074989e-01
    x[3,1]    findWorstP[4,3]  -5.2721838404625410e-02
    x[3,1]    findWorstP[5,3]  -2.1088630727059127e-01
    x[3,1]    findWorstP[6,3]  -1.3231803187717731e-01
    x[3,2]    allocateEach[2]  1
    x[3,2]    findWorstP[1,3]  -2.8513940787582642e-01
    x[3,2]    findWorstP[2,3]  -3.2206009878218894e-01
    x[3,2]    findWorstP[3,1]  2.0615911035072707e-01
    x[3,2]    findWorstP[3,2]  2.0615911035072707e-01
    x[3,2]    findWorstP[3,4]  2.0615911035072707e-01
    x[3,2]    findWorstP[3,5]  2.0615911035072707e-01
    x[3,2]    findWorstP[3,6]  2.0615911035072707e-01
    x[3,2]    findWorstP[4,3]  -1.5983144691067666e-01
    x[3,2]    findWorstP[5,3]  -1.8203889831614670e-01
    x[3,2]    findWorstP[6,3]  -1.8790270370256187e-01
    x[3,3]    allocateEach[3]  1
    x[3,3]    findWorstP[1,3]  -7.1342339752802547e-02
    x[3,3]    findWorstP[2,3]  -2.5374203521471926e-02
    x[3,3]    findWorstP[3,1]  2.5228115198175072e-01
    x[3,3]    findWorstP[3,2]  2.5228115198175072e-01
    x[3,3]    findWorstP[3,4]  2.5228115198175072e-01
    x[3,3]    findWorstP[3,5]  2.5228115198175072e-01
    x[3,3]    findWorstP[3,6]  2.5228115198175072e-01
    x[3,3]    findWorstP[4,3]  -1.1583125091871233e-01
    x[3,3]    findWorstP[5,3]  -2.0623939433494320e-01
    x[3,3]    findWorstP[6,3]  -1.5584055245552914e-01
    x[3,4]    allocateEach[4]  1
    x[3,4]    findWorstP[1,3]  -2.0563380281690147e-01
    x[3,4]    findWorstP[2,3]  -0.252309316442333
    x[3,4]    findWorstP[3,1]  2.9216566866267457e-01
    x[3,4]    findWorstP[3,2]  2.9216566866267457e-01
    x[3,4]    findWorstP[3,4]  2.9216566866267457e-01
    x[3,4]    findWorstP[3,5]  2.9216566866267457e-01
    x[3,4]    findWorstP[3,6]  2.9216566866267457e-01
    x[3,4]    findWorstP[4,3]  -1.2749277279631535e-01
    x[3,4]    findWorstP[5,3]  -1.6491319671061219e-01
    x[3,4]    findWorstP[6,3]  -1.8885840244165614e-01
    x[3,5]    allocateEach[5]  1
    x[3,5]    findWorstP[1,3]  -3.0859442368496703e-01
    x[3,5]    findWorstP[2,3]  -2.3711495682992118e-01
    x[3,5]    findWorstP[3,1]  4.1951810664385504e-02
    x[3,5]    findWorstP[3,2]  4.1951810664385504e-02
    x[3,5]    findWorstP[3,4]  4.1951810664385504e-02
    x[3,5]    findWorstP[3,5]  4.1951810664385504e-02
    x[3,5]    findWorstP[3,6]  4.1951810664385504e-02
    x[3,5]    findWorstP[4,3]  -0.446126708804939
    x[3,5]    findWorstP[5,3]  -1.8370969847278421e-01
    x[3,5]    findWorstP[6,3]  -2.7342232635570490e-01
    x[4,1]    allocateEach[1]  1
    x[4,1]    findWorstP[1,4]  -1.4314458177637254e-02
    x[4,1]    findWorstP[2,4]  -8.7735173245862066e-02
    x[4,1]    findWorstP[3,4]  -1.3615625891074989e-01
    x[4,1]    findWorstP[4,1]  5.2721838404625410e-02
    x[4,1]    findWorstP[4,2]  5.2721838404625410e-02
    x[4,1]    findWorstP[4,3]  5.2721838404625410e-02
    x[4,1]    findWorstP[4,5]  5.2721838404625410e-02
    x[4,1]    findWorstP[4,6]  5.2721838404625410e-02
    x[4,1]    findWorstP[5,4]  -2.1088630727059127e-01
    x[4,1]    findWorstP[6,4]  -1.3231803187717731e-01
    x[4,2]    allocateEach[2]  1
    x[4,2]    findWorstP[1,4]  -2.8513940787582642e-01
    x[4,2]    findWorstP[2,4]  -3.2206009878218894e-01
    x[4,2]    findWorstP[3,4]  -2.0615911035072707e-01
    x[4,2]    findWorstP[4,1]  1.5983144691067666e-01
    x[4,2]    findWorstP[4,2]  1.5983144691067666e-01
    x[4,2]    findWorstP[4,3]  1.5983144691067666e-01
    x[4,2]    findWorstP[4,5]  1.5983144691067666e-01
    x[4,2]    findWorstP[4,6]  1.5983144691067666e-01
    x[4,2]    findWorstP[5,4]  -1.8203889831614670e-01
    x[4,2]    findWorstP[6,4]  -1.8790270370256187e-01
    x[4,3]    allocateEach[3]  1
    x[4,3]    findWorstP[1,4]  -7.1342339752802547e-02
    x[4,3]    findWorstP[2,4]  -2.5374203521471926e-02
    x[4,3]    findWorstP[3,4]  -2.5228115198175072e-01
    x[4,3]    findWorstP[4,1]  1.1583125091871233e-01
    x[4,3]    findWorstP[4,2]  1.1583125091871233e-01
    x[4,3]    findWorstP[4,3]  1.1583125091871233e-01
    x[4,3]    findWorstP[4,5]  1.1583125091871233e-01
    x[4,3]    findWorstP[4,6]  1.1583125091871233e-01
    x[4,3]    findWorstP[5,4]  -2.0623939433494320e-01
    x[4,3]    findWorstP[6,4]  -1.5584055245552914e-01
    x[4,4]    allocateEach[4]  1
    x[4,4]    findWorstP[1,4]  -2.0563380281690147e-01
    x[4,4]    findWorstP[2,4]  -0.252309316442333
    x[4,4]    findWorstP[3,4]  -2.9216566866267457e-01
    x[4,4]    findWorstP[4,1]  1.2749277279631535e-01
    x[4,4]    findWorstP[4,2]  1.2749277279631535e-01
    x[4,4]    findWorstP[4,3]  1.2749277279631535e-01
    x[4,4]    findWorstP[4,5]  1.2749277279631535e-01
    x[4,4]    findWorstP[4,6]  1.2749277279631535e-01
    x[4,4]    findWorstP[5,4]  -1.6491319671061219e-01
    x[4,4]    findWorstP[6,4]  -1.8885840244165614e-01
    x[4,5]    allocateEach[5]  1
    x[4,5]    findWorstP[1,4]  -3.0859442368496703e-01
    x[4,5]    findWorstP[2,4]  -2.3711495682992118e-01
    x[4,5]    findWorstP[3,4]  -4.1951810664385504e-02
    x[4,5]    findWorstP[4,1]  0.446126708804939
    x[4,5]    findWorstP[4,2]  0.446126708804939
    x[4,5]    findWorstP[4,3]  0.446126708804939
    x[4,5]    findWorstP[4,5]  0.446126708804939
    x[4,5]    findWorstP[4,6]  0.446126708804939
    x[4,5]    findWorstP[5,4]  -1.8370969847278421e-01
    x[4,5]    findWorstP[6,4]  -2.7342232635570490e-01
    x[5,1]    allocateEach[1]  1
    x[5,1]    findWorstP[1,5]  -1.4314458177637254e-02
    x[5,1]    findWorstP[2,5]  -8.7735173245862066e-02
    x[5,1]    findWorstP[3,5]  -1.3615625891074989e-01
    x[5,1]    findWorstP[4,5]  -5.2721838404625410e-02
    x[5,1]    findWorstP[5,1]  2.1088630727059127e-01
    x[5,1]    findWorstP[5,2]  2.1088630727059127e-01
    x[5,1]    findWorstP[5,3]  2.1088630727059127e-01
    x[5,1]    findWorstP[5,4]  2.1088630727059127e-01
    x[5,1]    findWorstP[5,6]  2.1088630727059127e-01
    x[5,1]    findWorstP[6,5]  -1.3231803187717731e-01
    x[5,2]    allocateEach[2]  1
    x[5,2]    findWorstP[1,5]  -2.8513940787582642e-01
    x[5,2]    findWorstP[2,5]  -3.2206009878218894e-01
    x[5,2]    findWorstP[3,5]  -2.0615911035072707e-01
    x[5,2]    findWorstP[4,5]  -1.5983144691067666e-01
    x[5,2]    findWorstP[5,1]  1.8203889831614670e-01
    x[5,2]    findWorstP[5,2]  1.8203889831614670e-01
    x[5,2]    findWorstP[5,3]  1.8203889831614670e-01
    x[5,2]    findWorstP[5,4]  1.8203889831614670e-01
    x[5,2]    findWorstP[5,6]  1.8203889831614670e-01
    x[5,2]    findWorstP[6,5]  -1.8790270370256187e-01
    x[5,3]    allocateEach[3]  1
    x[5,3]    findWorstP[1,5]  -7.1342339752802547e-02
    x[5,3]    findWorstP[2,5]  -2.5374203521471926e-02
    x[5,3]    findWorstP[3,5]  -2.5228115198175072e-01
    x[5,3]    findWorstP[4,5]  -1.1583125091871233e-01
    x[5,3]    findWorstP[5,1]  2.0623939433494320e-01
    x[5,3]    findWorstP[5,2]  2.0623939433494320e-01
    x[5,3]    findWorstP[5,3]  2.0623939433494320e-01
    x[5,3]    findWorstP[5,4]  2.0623939433494320e-01
    x[5,3]    findWorstP[5,6]  2.0623939433494320e-01
    x[5,3]    findWorstP[6,5]  -1.5584055245552914e-01
    x[5,4]    allocateEach[4]  1
    x[5,4]    findWorstP[1,5]  -2.0563380281690147e-01
    x[5,4]    findWorstP[2,5]  -0.252309316442333
    x[5,4]    findWorstP[3,5]  -2.9216566866267457e-01
    x[5,4]    findWorstP[4,5]  -1.2749277279631535e-01
    x[5,4]    findWorstP[5,1]  1.6491319671061219e-01
    x[5,4]    findWorstP[5,2]  1.6491319671061219e-01
    x[5,4]    findWorstP[5,3]  1.6491319671061219e-01
    x[5,4]    findWorstP[5,4]  1.6491319671061219e-01
    x[5,4]    findWorstP[5,6]  1.6491319671061219e-01
    x[5,4]    findWorstP[6,5]  -1.8885840244165614e-01
    x[5,5]    allocateEach[5]  1
    x[5,5]    findWorstP[1,5]  -3.0859442368496703e-01
    x[5,5]    findWorstP[2,5]  -2.3711495682992118e-01
    x[5,5]    findWorstP[3,5]  -4.1951810664385504e-02
    x[5,5]    findWorstP[4,5]  -0.446126708804939
    x[5,5]    findWorstP[5,1]  1.8370969847278421e-01
    x[5,5]    findWorstP[5,2]  1.8370969847278421e-01
    x[5,5]    findWorstP[5,3]  1.8370969847278421e-01
    x[5,5]    findWorstP[5,4]  1.8370969847278421e-01
    x[5,5]    findWorstP[5,6]  1.8370969847278421e-01
    x[5,5]    findWorstP[6,5]  -2.7342232635570490e-01
    x[6,1]    allocateEach[1]  1
    x[6,1]    findWorstP[1,6]  -1.4314458177637254e-02
    x[6,1]    findWorstP[2,6]  -8.7735173245862066e-02
    x[6,1]    findWorstP[3,6]  -1.3615625891074989e-01
    x[6,1]    findWorstP[4,6]  -5.2721838404625410e-02
    x[6,1]    findWorstP[5,6]  -2.1088630727059127e-01
    x[6,1]    findWorstP[6,1]  1.3231803187717731e-01
    x[6,1]    findWorstP[6,2]  1.3231803187717731e-01
    x[6,1]    findWorstP[6,3]  1.3231803187717731e-01
    x[6,1]    findWorstP[6,4]  1.3231803187717731e-01
    x[6,1]    findWorstP[6,5]  1.3231803187717731e-01
    x[6,2]    allocateEach[2]  1
    x[6,2]    findWorstP[1,6]  -2.8513940787582642e-01
    x[6,2]    findWorstP[2,6]  -3.2206009878218894e-01
    x[6,2]    findWorstP[3,6]  -2.0615911035072707e-01
    x[6,2]    findWorstP[4,6]  -1.5983144691067666e-01
    x[6,2]    findWorstP[5,6]  -1.8203889831614670e-01
    x[6,2]    findWorstP[6,1]  1.8790270370256187e-01
    x[6,2]    findWorstP[6,2]  1.8790270370256187e-01
    x[6,2]    findWorstP[6,3]  1.8790270370256187e-01
    x[6,2]    findWorstP[6,4]  1.8790270370256187e-01
    x[6,2]    findWorstP[6,5]  1.8790270370256187e-01
    x[6,3]    allocateEach[3]  1
    x[6,3]    findWorstP[1,6]  -7.1342339752802547e-02
    x[6,3]    findWorstP[2,6]  -2.5374203521471926e-02
    x[6,3]    findWorstP[3,6]  -2.5228115198175072e-01
    x[6,3]    findWorstP[4,6]  -1.1583125091871233e-01
    x[6,3]    findWorstP[5,6]  -2.0623939433494320e-01
    x[6,3]    findWorstP[6,1]  1.5584055245552914e-01
    x[6,3]    findWorstP[6,2]  1.5584055245552914e-01
    x[6,3]    findWorstP[6,3]  1.5584055245552914e-01
    x[6,3]    findWorstP[6,4]  1.5584055245552914e-01
    x[6,3]    findWorstP[6,5]  1.5584055245552914e-01
    x[6,4]    allocateEach[4]  1
    x[6,4]    findWorstP[1,6]  -2.0563380281690147e-01
    x[6,4]    findWorstP[2,6]  -0.252309316442333
    x[6,4]    findWorstP[3,6]  -2.9216566866267457e-01
    x[6,4]    findWorstP[4,6]  -1.2749277279631535e-01
    x[6,4]    findWorstP[5,6]  -1.6491319671061219e-01
    x[6,4]    findWorstP[6,1]  1.8885840244165614e-01
    x[6,4]    findWorstP[6,2]  1.8885840244165614e-01
    x[6,4]    findWorstP[6,3]  1.8885840244165614e-01
    x[6,4]    findWorstP[6,4]  1.8885840244165614e-01
    x[6,4]    findWorstP[6,5]  1.8885840244165614e-01
    x[6,5]    allocateEach[5]  1
    x[6,5]    findWorstP[1,6]  -3.0859442368496703e-01
    x[6,5]    findWorstP[2,6]  -2.3711495682992118e-01
    x[6,5]    findWorstP[3,6]  -4.1951810664385504e-02
    x[6,5]    findWorstP[4,6]  -0.446126708804939
    x[6,5]    findWorstP[5,6]  -1.8370969847278421e-01
    x[6,5]    findWorstP[6,1]  2.7342232635570490e-01
    x[6,5]    findWorstP[6,2]  2.7342232635570490e-01
    x[6,5]    findWorstP[6,3]  2.7342232635570490e-01
    x[6,5]    findWorstP[6,4]  2.7342232635570490e-01
    x[6,5]    findWorstP[6,5]  2.7342232635570490e-01
    MARKER    'MARKER'                 'INTEND'
RHS
    RHS1      allocateEach[1]  1
    RHS1      allocateEach[2]  1
    RHS1      allocateEach[3]  1
    RHS1      allocateEach[4]  1
    RHS1      allocateEach[5]  1
    RHS1      allocateAllCash  1
BOUNDS
 UP BND1      z         1
 MI BND1      cashProportion[1]
 UP BND1      cashProportion[1]  1
 MI BND1      cashProportion[2]
 UP BND1      cashProportion[2]  1
 MI BND1      cashProportion[3]
 UP BND1      cashProportion[3]  1
 MI BND1      cashProportion[4]
 UP BND1      cashProportion[4]  1
 MI BND1      cashProportion[5]
 UP BND1      cashProportion[5]  1
 MI BND1      cashProportion[6]
 UP BND1      cashProportion[6]  1
 BV BND1      x[1,1]  
 BV BND1      x[1,2]  
 BV BND1      x[1,3]  
 BV BND1      x[1,4]  
 BV BND1      x[1,5]  
 BV BND1      x[2,1]  
 BV BND1      x[2,2]  
 BV BND1      x[2,3]  
 BV BND1      x[2,4]  
 BV BND1      x[2,5]  
 BV BND1      x[3,1]  
 BV BND1      x[3,2]  
 BV BND1      x[3,3]  
 BV BND1      x[3,4]  
 BV BND1      x[3,5]  
 BV BND1      x[4,1]  
 BV BND1      x[4,2]  
 BV BND1      x[4,3]  
 BV BND1      x[4,4]  
 BV BND1      x[4,5]  
 BV BND1      x[5,1]  
 BV BND1      x[5,2]  
 BV BND1      x[5,3]  
 BV BND1      x[5,4]  
 BV BND1      x[5,5]  
 BV BND1      x[6,1]  
 BV BND1      x[6,2]  
 BV BND1      x[6,3]  
 BV BND1      x[6,4]  
 BV BND1      x[6,5]  
ENDATA
